NAME : Unnamed.633.tour
COMMENT : Length = 633
COMMENT : Found by LKH [Keld Helsgaun] Sat Oct 04 21:49:48 2014
TYPE : TOUR
DIMENSION : 33
TOUR_SECTION
1
2
17
4
24
12
23
25
26
16
14
18
9
3
5
8
6
7
11
15
13
10
27
21
31
30
22
20
32
29
28
19
33
-1
EOF
